c   #vars: 45   #clauses: 187   #literals: 536
c 
p cnf 45 187
-1 -2 0
-3 -4 0
-5 -6 0
-7 -8 0
-10 -11 0
7 8 19 -44 0
-13 -14 0
-15 -16 0
-17 -18 0
15 16 22 -38 0
-20 -21 0
-9 23 24 42 0
-23 -24 0
-25 -26 0
-27 -28 0
-29 -30 0
9 17 18 -42 0
-32 -33 0
25 26 34 35 0
-34 -35 0
-36 -37 0
-38 -39 0
1 2 40 41 0
-40 -41 0
1 2 -12 43 0
-11 12 -32 43 0
15 16 32 33 0
29 30 32 33 0
15 16 29 30 0
9 -17 29 30 0
-44 -45 0
-1 -27 0
-2 -28 0
-6 9 -29 42 0
9 17 18 -29 0
-2 -31 0
9 29 30 -42 0
-1 -40 0
-2 -41 0
15 16 44 45 0
-1 -43 0
3 4 38 39 0
3 4 34 35 0
7 8 40 41 0
-3 -23 0
-4 -24 0
-3 -27 0
-4 -28 0
7 8 38 39 0
-3 -34 0
-4 -35 0
7 8 27 28 0
-3 -36 0
-4 -37 0
20 21 40 41 0
-3 -38 0
-4 -39 0
-5 -29 0
-6 -30 0
-5 -34 0
-6 -35 0
-7 19 44 45 0
-5 -36 0
-6 -37 0
-5 -42 0
1 2 -11 43 0
-6 9 -17 42 0
15 16 22 -36 0
-8 -19 0
20 21 34 35 0
-7 -27 0
-8 -28 0
12 -23 32 33 0
-7 -38 0
-8 -39 0
1 2 27 28 0
-7 -40 0
-8 -41 0
9 -17 -24 42 0
-7 -44 0
-8 -45 0
5 6 36 37 0
-9 -18 0
3 4 36 37 0
7 8 44 45 0
25 26 -29 -30 0
-9 -30 0
12 23 24 -32 0
-25 -26 29 30 0
10 11 -12 43 0
-1 31 32 33 0
-10 -20 0
-11 -21 0
1 2 -13 31 0
-10 -25 0
-11 -26 0
27 28 36 37 0
-10 -36 0
-11 -37 0
15 16 25 26 0
-10 -43 0
-13 31 32 33 0
7 8 19 -38 0
-12 -24 0
10 11 36 37 0
19 38 39 -44 0
-12 -33 0
13 14 31 -32 0
-7 19 38 39 0
10 11 20 21 0
-13 -17 0
-14 -18 0
1 2 31 -32 0
-13 -25 0
-14 -26 0
12 23 24 -43 0
-2 12 -23 43 0
-14 -31 0
13 14 25 26 0
-13 -44 0
-14 -45 0
12 32 33 -43 0
-6 23 24 42 0
-16 -22 0
17 18 40 41 0
-15 -25 0
-16 -26 0
13 14 17 18 0
-15 -29 0
-16 -30 0
-15 -32 0
-16 -33 0
-1 13 14 31 0
-15 -44 0
-16 -45 0
3 4 23 24 0
-17 -36 0
-18 -37 0
-17 -40 0
-18 -41 0
-2 12 -32 43 0
-17 -44 0
-18 -45 0
17 18 44 45 0
22 -36 38 39 0
-19 -39 0
-15 22 36 37 0
-15 22 38 39 0
-19 -45 0
20 21 44 45 0
-20 -34 0
-21 -35 0
5 6 34 35 0
-20 -40 0
-21 -41 0
22 36 37 -38 0
-20 -44 0
-21 -45 0
13 14 44 45 0
5 6 -24 42 0
-22 -37 0
19 -38 44 45 0
5 6 -9 42 0
-22 -39 0
-23 -34 0
-24 -35 0
3 4 27 28 0
-23 -42 0
-2 10 11 43 0
5 6 29 30 0
23 24 34 35 0
-25 -32 0
-26 -33 0
25 26 32 33 0
-25 -34 0
-26 -35 0
17 18 36 37 0
-1 -2 23 24 0
10 11 25 26 0
-27 -36 0
-28 -37 0
-29 -32 0
-30 -33 0
1 2 -23 -24 0
9 -24 -29 42 0
-11 12 -23 43 0
-31 -33 0
